1600 3200
1 2 5
1 41 1
2 3 1
2 42 2
3 4 2
3 43 5
4 5 1
4 44 5
5 6 1
5 45 4
6 7 3
6 46 2
7 8 2
7 47 3
8 9 2
8 48 1
9 10 1
9 49 5
10 11 2
10 50 2
11 12 2
11 51 2
12 13 1
12 52 1
13 14 4
13 53 2
14 15 1
14 54 1
15 16 3
15 55 3
16 17 1
16 56 1
17 18 2
17 57 2
18 19 5
18 58 1
19 20 1
19 59 2
20 21 4
20 60 5
21 22 2
21 61 4
22 23 2
22 62 4
23 24 3
23 63 4
24 25 4
24 64 4
25 26 1
25 65 2
26 27 5
26 66 5
27 28 4
27 67 5
28 29 1
28 68 1
29 30 5
29 69 4
30 31 3
30 70 3
31 32 4
31 71 4
32 33 4
32 72 2
33 34 2
33 73 1
34 35 5
34 74 3
35 36 4
35 75 2
36 37 4
36 76 3
37 38 4
37 77 2
38 39 5
38 78 2
39 40 3
39 79 4
40 80 2
41 42 2
41 81 3
42 43 1
42 82 1
43 44 5
43 83 1
44 45 4
44 84 4
45 46 5
45 85 3
46 47 3
46 86 2
47 48 5
47 87 4
48 49 1
48 88 5
49 50 3
49 89 5
50 51 4
50 90 3
51 52 5
51 91 3
52 53 5
52 92 4
53 54 1
53 93 2
54 55 2
54 94 4
55 56 5
55 95 4
56 57 3
56 96 3
57 58 3
57 97 2
58 59 1
58 98 1
59 60 1
59 99 4
60 61 5
60 100 5
61 62 3
61 101 5
62 63 3
62 102 2
63 64 1
63 103 1
64 65 5
64 104 1
65 66 4
65 105 4
66 67 2
66 106 2
67 68 5
67 107 5
68 69 5
68 108 3
69 70 1
69 109 2
70 71 3
70 110 5
71 72 2
71 111 2
72 73 4
72 112 2
73 74 2
73 113 5
74 75 5
74 114 3
75 76 1
75 115 3
76 77 4
76 116 4
77 78 4
77 117 1
78 79 5
78 118 2
79 80 1
79 119 3
80 120 1
81 82 1
81 121 4
82 83 1
82 122 4
83 84 5
83 123 1
84 85 3
84 124 2
85 86 3
85 125 2
86 87 4
86 126 1
87 88 5
87 127 3
88 89 2
88 128 2
89 90 2
89 129 4
90 91 1
90 130 3
91 92 3
91 131 3
92 93 1
92 132 5
93 94 5
93 133 5
94 95 3
94 134 2
95 96 5
95 135 2
96 97 3
96 136 1
97 98 3
97 137 3
98 99 2
98 138 4
99 100 4
99 139 2
100 101 2
100 140 1
101 102 2
101 141 5
102 103 2
102 142 4
103 104 1
103 143 5
104 105 3
104 144 1
105 106 4
105 145 3
106 107 3
106 146 4
107 108 2
107 147 2
108 109 2
108 148 3
109 110 4
109 149 1
110 111 5
110 150 3
111 112 2
111 151 2
112 113 5
112 152 2
113 114 5
113 153 3
114 115 3
114 154 2
115 116 2
115 155 5
116 117 4
116 156 3
117 118 5
117 157 5
118 119 1
118 158 5
119 120 4
119 159 3
120 160 1
121 122 4
121 161 4
122 123 5
122 162 5
123 124 1
123 163 3
124 125 2
124 164 5
125 126 4
125 165 2
126 127 4
126 166 3
127 128 4
127 167 1
128 129 2
128 168 1
129 130 1
129 169 4
130 131 3
130 170 2
131 132 3
131 171 3
132 133 1
132 172 1
133 134 4
133 173 1
134 135 3
134 174 3
135 136 3
135 175 5
136 137 4
136 176 4
137 138 3
137 177 3
138 139 1
138 178 4
139 140 1
139 179 4
140 141 2
140 180 5
141 142 1
141 181 5
142 143 2
142 182 3
143 144 3
143 183 5
144 145 5
144 184 1
145 146 3
145 185 3
146 147 5
146 186 3
147 148 2
147 187 2
148 149 2
148 188 5
149 150 4
149 189 1
150 151 3
150 190 1
151 152 5
151 191 2
152 153 1
152 192 4
153 154 2
153 193 1
154 155 5
154 194 5
155 156 1
155 195 1
156 157 2
156 196 5
157 158 3
157 197 5
158 159 1
158 198 2
159 160 1
159 199 1
160 200 2
161 162 2
161 201 1
162 163 1
162 202 1
163 164 1
163 203 1
164 165 1
164 204 1
165 166 2
165 205 3
166 167 1
166 206 5
167 168 2
167 207 2
168 169 5
168 208 2
169 170 3
169 209 5
170 171 3
170 210 5
171 172 4
171 211 1
172 173 2
172 212 3
173 174 2
173 213 3
174 175 5
174 214 5
175 176 1
175 215 5
176 177 5
176 216 1
177 178 1
177 217 3
178 179 5
178 218 3
179 180 5
179 219 5
180 181 2
180 220 5
181 182 2
181 221 2
182 183 3
182 222 1
183 184 3
183 223 5
184 185 3
184 224 2
185 186 4
185 225 5
186 187 1
186 226 4
187 188 1
187 227 3
188 189 2
188 228 5
189 190 4
189 229 3
190 191 3
190 230 5
191 192 5
191 231 5
192 193 4
192 232 1
193 194 4
193 233 4
194 195 4
194 234 4
195 196 4
195 235 4
196 197 1
196 236 1
197 198 1
197 237 1
198 199 2
198 238 3
199 200 5
199 239 5
200 240 2
201 202 2
201 241 4
202 203 5
202 242 2
203 204 4
203 243 1
204 205 2
204 244 2
205 206 3
205 245 1
206 207 4
206 246 2
207 208 3
207 247 3
208 209 4
208 248 2
209 210 4
209 249 3
210 211 3
210 250 3
211 212 5
211 251 2
212 213 5
212 252 5
213 214 3
213 253 4
214 215 1
214 254 3
215 216 2
215 255 5
216 217 1
216 256 3
217 218 2
217 257 4
218 219 5
218 258 4
219 220 4
219 259 2
220 221 4
220 260 4
221 222 5
221 261 4
222 223 4
222 262 5
223 224 1
223 263 3
224 225 5
224 264 2
225 226 2
225 265 4
226 227 4
226 266 4
227 228 2
227 267 3
228 229 4
228 268 1
229 230 4
229 269 5
230 231 1
230 270 4
231 232 2
231 271 5
232 233 4
232 272 4
233 234 2
233 273 5
234 235 4
234 274 5
235 236 1
235 275 1
236 237 4
236 276 1
237 238 1
237 277 2
238 239 4
238 278 4
239 240 4
239 279 2
240 280 5
241 242 5
241 281 1
242 243 1
242 282 5
243 244 1
243 283 3
244 245 4
244 284 2
245 246 1
245 285 3
246 247 3
246 286 4
247 248 5
247 287 2
248 249 2
248 288 3
249 250 4
249 289 1
250 251 5
250 290 4
251 252 2
251 291 5
252 253 3
252 292 2
253 254 2
253 293 5
254 255 4
254 294 1
255 256 4
255 295 1
256 257 5
256 296 1
257 258 3
257 297 2
258 259 1
258 298 4
259 260 4
259 299 3
260 261 1
260 300 5
261 262 1
261 301 5
262 263 4
262 302 5
263 264 4
263 303 1
264 265 4
264 304 2
265 266 2
265 305 4
266 267 4
266 306 5
267 268 2
267 307 3
268 269 5
268 308 1
269 270 5
269 309 5
270 271 1
270 310 5
271 272 3
271 311 1
272 273 1
272 312 3
273 274 3
273 313 5
274 275 2
274 314 3
275 276 1
275 315 5
276 277 5
276 316 2
277 278 3
277 317 3
278 279 5
278 318 4
279 280 3
279 319 5
280 320 2
281 282 3
281 321 5
282 283 3
282 322 5
283 284 2
283 323 5
284 285 1
284 324 4
285 286 1
285 325 2
286 287 4
286 326 5
287 288 2
287 327 4
288 289 1
288 328 1
289 290 4
289 329 4
290 291 5
290 330 3
291 292 2
291 331 2
292 293 4
292 332 3
293 294 3
293 333 2
294 295 4
294 334 3
295 296 2
295 335 3
296 297 1
296 336 4
297 298 5
297 337 5
298 299 3
298 338 3
299 300 5
299 339 5
300 301 1
300 340 3
301 302 3
301 341 2
302 303 5
302 342 5
303 304 4
303 343 2
304 305 4
304 344 1
305 306 3
305 345 1
306 307 3
306 346 1
307 308 4
307 347 5
308 309 5
308 348 2
309 310 5
309 349 5
310 311 4
310 350 4
311 312 1
311 351 4
312 313 2
312 352 3
313 314 5
313 353 5
314 315 5
314 354 5
315 316 1
315 355 1
316 317 1
316 356 4
317 318 5
317 357 1
318 319 2
318 358 2
319 320 4
319 359 1
320 360 4
321 322 4
321 361 3
322 323 4
322 362 5
323 324 4
323 363 5
324 325 5
324 364 2
325 326 2
325 365 1
326 327 3
326 366 2
327 328 3
327 367 1
328 329 2
328 368 2
329 330 4
329 369 4
330 331 1
330 370 1
331 332 2
331 371 5
332 333 3
332 372 5
333 334 3
333 373 2
334 335 2
334 374 1
335 336 1
335 375 1
336 337 1
336 376 4
337 338 3
337 377 2
338 339 1
338 378 1
339 340 5
339 379 4
340 341 2
340 380 2
341 342 5
341 381 2
342 343 5
342 382 4
343 344 3
343 383 5
344 345 5
344 384 3
345 346 1
345 385 3
346 347 2
346 386 5
347 348 1
347 387 4
348 349 1
348 388 2
349 350 5
349 389 4
350 351 2
350 390 2
351 352 3
351 391 5
352 353 1
352 392 5
353 354 1
353 393 2
354 355 1
354 394 5
355 356 4
355 395 2
356 357 1
356 396 4
357 358 1
357 397 2
358 359 2
358 398 1
359 360 1
359 399 3
360 400 4
361 362 4
361 401 2
362 363 1
362 402 3
363 364 2
363 403 2
364 365 4
364 404 4
365 366 5
365 405 5
366 367 2
366 406 1
367 368 1
367 407 1
368 369 4
368 408 1
369 370 2
369 409 4
370 371 2
370 410 5
371 372 4
371 411 1
372 373 1
372 412 1
373 374 5
373 413 4
374 375 4
374 414 3
375 376 1
375 415 1
376 377 2
376 416 2
377 378 3
377 417 2
378 379 1
378 418 4
379 380 5
379 419 4
380 381 3
380 420 4
381 382 3
381 421 1
382 383 3
382 422 1
383 384 3
383 423 4
384 385 1
384 424 3
385 386 1
385 425 1
386 387 5
386 426 3
387 388 3
387 427 3
388 389 4
388 428 4
389 390 5
389 429 4
390 391 5
390 430 5
391 392 3
391 431 3
392 393 4
392 432 5
393 394 4
393 433 4
394 395 3
394 434 3
395 396 1
395 435 4
396 397 5
396 436 4
397 398 1
397 437 3
398 399 5
398 438 1
399 400 1
399 439 5
400 440 1
401 402 4
401 441 3
402 403 2
402 442 4
403 404 1
403 443 1
404 405 5
404 444 3
405 406 5
405 445 5
406 407 2
406 446 4
407 408 5
407 447 3
408 409 5
408 448 2
409 410 1
409 449 3
410 411 4
410 450 1
411 412 2
411 451 5
412 413 2
412 452 1
413 414 5
413 453 1
414 415 4
414 454 3
415 416 5
415 455 3
416 417 1
416 456 4
417 418 3
417 457 1
418 419 1
418 458 4
419 420 5
419 459 1
420 421 2
420 460 4
421 422 1
421 461 3
422 423 5
422 462 3
423 424 5
423 463 2
424 425 1
424 464 2
425 426 3
425 465 2
426 427 3
426 466 4
427 428 1
427 467 3
428 429 3
428 468 2
429 430 3
429 469 1
430 431 5
430 470 2
431 432 2
431 471 1
432 433 3
432 472 1
433 434 5
433 473 3
434 435 3
434 474 3
435 436 1
435 475 2
436 437 4
436 476 2
437 438 4
437 477 4
438 439 5
438 478 3
439 440 2
439 479 4
440 480 2
441 442 2
441 481 5
442 443 1
442 482 2
443 444 3
443 483 3
444 445 1
444 484 2
445 446 4
445 485 1
446 447 3
446 486 1
447 448 3
447 487 4
448 449 5
448 488 3
449 450 4
449 489 3
450 451 4
450 490 1
451 452 1
451 491 3
452 453 1
452 492 4
453 454 1
453 493 5
454 455 4
454 494 1
455 456 4
455 495 4
456 457 3
456 496 2
457 458 2
457 497 1
458 459 3
458 498 1
459 460 2
459 499 2
460 461 1
460 500 3
461 462 1
461 501 2
462 463 1
462 502 5
463 464 3
463 503 5
464 465 3
464 504 1
465 466 2
465 505 4
466 467 4
466 506 3
467 468 1
467 507 1
468 469 2
468 508 4
469 470 5
469 509 3
470 471 2
470 510 5
471 472 3
471 511 2
472 473 3
472 512 3
473 474 2
473 513 1
474 475 3
474 514 5
475 476 3
475 515 2
476 477 1
476 516 1
477 478 5
477 517 2
478 479 2
478 518 4
479 480 5
479 519 3
480 520 4
481 482 4
481 521 5
482 483 2
482 522 3
483 484 1
483 523 4
484 485 3
484 524 3
485 486 2
485 525 2
486 487 4
486 526 2
487 488 1
487 527 2
488 489 5
488 528 3
489 490 1
489 529 1
490 491 2
490 530 5
491 492 3
491 531 1
492 493 2
492 532 1
493 494 2
493 533 5
494 495 5
494 534 4
495 496 3
495 535 5
496 497 2
496 536 1
497 498 4
497 537 2
498 499 3
498 538 2
499 500 2
499 539 1
500 501 5
500 540 3
501 502 2
501 541 5
502 503 5
502 542 4
503 504 5
503 543 4
504 505 5
504 544 2
505 506 3
505 545 1
506 507 4
506 546 3
507 508 3
507 547 1
508 509 1
508 548 2
509 510 4
509 549 4
510 511 1
510 550 5
511 512 5
511 551 4
512 513 4
512 552 3
513 514 1
513 553 4
514 515 3
514 554 4
515 516 5
515 555 4
516 517 3
516 556 2
517 518 5
517 557 4
518 519 5
518 558 5
519 520 1
519 559 4
520 560 1
521 522 2
521 561 1
522 523 2
522 562 5
523 524 5
523 563 4
524 525 2
524 564 3
525 526 5
525 565 1
526 527 2
526 566 1
527 528 1
527 567 1
528 529 5
528 568 3
529 530 2
529 569 5
530 531 4
530 570 4
531 532 5
531 571 5
532 533 2
532 572 4
533 534 2
533 573 1
534 535 1
534 574 5
535 536 4
535 575 5
536 537 5
536 576 3
537 538 3
537 577 4
538 539 3
538 578 1
539 540 1
539 579 5
540 541 2
540 580 2
541 542 5
541 581 3
542 543 5
542 582 5
543 544 4
543 583 5
544 545 1
544 584 4
545 546 4
545 585 1
546 547 2
546 586 2
547 548 2
547 587 3
548 549 5
548 588 4
549 550 1
549 589 5
550 551 5
550 590 5
551 552 5
551 591 1
552 553 3
552 592 2
553 554 5
553 593 3
554 555 4
554 594 5
555 556 1
555 595 3
556 557 5
556 596 2
557 558 4
557 597 1
558 559 5
558 598 5
559 560 1
559 599 5
560 600 2
561 562 3
561 601 1
562 563 4
562 602 1
563 564 3
563 603 4
564 565 1
564 604 1
565 566 2
565 605 5
566 567 2
566 606 1
567 568 5
567 607 1
568 569 1
568 608 4
569 570 2
569 609 2
570 571 3
570 610 4
571 572 5
571 611 4
572 573 2
572 612 3
573 574 3
573 613 4
574 575 1
574 614 5
575 576 2
575 615 4
576 577 4
576 616 3
577 578 4
577 617 1
578 579 1
578 618 1
579 580 5
579 619 4
580 581 1
580 620 5
581 582 3
581 621 1
582 583 2
582 622 3
583 584 1
583 623 2
584 585 5
584 624 5
585 586 2
585 625 1
586 587 2
586 626 1
587 588 4
587 627 3
588 589 4
588 628 5
589 590 3
589 629 1
590 591 1
590 630 5
591 592 5
591 631 3
592 593 5
592 632 4
593 594 5
593 633 2
594 595 5
594 634 4
595 596 2
595 635 4
596 597 2
596 636 3
597 598 3
597 637 3
598 599 5
598 638 3
599 600 1
599 639 1
600 640 3
601 602 2
601 641 3
602 603 4
602 642 1
603 604 1
603 643 5
604 605 2
604 644 4
605 606 1
605 645 4
606 607 3
606 646 1
607 608 2
607 647 3
608 609 2
608 648 2
609 610 2
609 649 4
610 611 4
610 650 4
611 612 2
611 651 4
612 613 4
612 652 1
613 614 3
613 653 4
614 615 4
614 654 2
615 616 4
615 655 2
616 617 2
616 656 1
617 618 2
617 657 1
618 619 3
618 658 1
619 620 5
619 659 2
620 621 1
620 660 2
621 622 2
621 661 2
622 623 3
622 662 4
623 624 4
623 663 5
624 625 1
624 664 4
625 626 2
625 665 1
626 627 5
626 666 1
627 628 5
627 667 5
628 629 4
628 668 2
629 630 1
629 669 4
630 631 1
630 670 3
631 632 4
631 671 4
632 633 5
632 672 3
633 634 5
633 673 1
634 635 1
634 674 3
635 636 3
635 675 3
636 637 3
636 676 5
637 638 3
637 677 2
638 639 4
638 678 3
639 640 4
639 679 5
640 680 1
641 642 1
641 681 4
642 643 3
642 682 1
643 644 4
643 683 5
644 645 4
644 684 3
645 646 5
645 685 2
646 647 4
646 686 2
647 648 1
647 687 3
648 649 2
648 688 1
649 650 3
649 689 3
650 651 5
650 690 3
651 652 4
651 691 4
652 653 4
652 692 3
653 654 4
653 693 5
654 655 2
654 694 3
655 656 3
655 695 2
656 657 5
656 696 1
657 658 1
657 697 1
658 659 4
658 698 1
659 660 5
659 699 3
660 661 5
660 700 4
661 662 5
661 701 1
662 663 3
662 702 3
663 664 3
663 703 4
664 665 2
664 704 4
665 666 5
665 705 5
666 667 5
666 706 2
667 668 3
667 707 1
668 669 5
668 708 4
669 670 4
669 709 4
670 671 4
670 710 3
671 672 1
671 711 1
672 673 5
672 712 2
673 674 4
673 713 3
674 675 3
674 714 1
675 676 1
675 715 3
676 677 3
676 716 1
677 678 2
677 717 2
678 679 3
678 718 5
679 680 2
679 719 4
680 720 1
681 682 2
681 721 4
682 683 5
682 722 1
683 684 1
683 723 2
684 685 3
684 724 5
685 686 3
685 725 4
686 687 1
686 726 3
687 688 3
687 727 4
688 689 5
688 728 1
689 690 5
689 729 3
690 691 3
690 730 3
691 692 5
691 731 2
692 693 4
692 732 1
693 694 5
693 733 3
694 695 2
694 734 4
695 696 4
695 735 5
696 697 5
696 736 3
697 698 2
697 737 5
698 699 4
698 738 2
699 700 3
699 739 4
700 701 5
700 740 1
701 702 3
701 741 3
702 703 5
702 742 2
703 704 3
703 743 1
704 705 3
704 744 5
705 706 4
705 745 1
706 707 5
706 746 3
707 708 1
707 747 4
708 709 4
708 748 2
709 710 3
709 749 4
710 711 1
710 750 1
711 712 3
711 751 2
712 713 4
712 752 4
713 714 4
713 753 5
714 715 3
714 754 1
715 716 4
715 755 5
716 717 5
716 756 5
717 718 3
717 757 5
718 719 5
718 758 2
719 720 5
719 759 4
720 760 2
721 722 4
721 761 5
722 723 2
722 762 3
723 724 3
723 763 4
724 725 1
724 764 2
725 726 3
725 765 4
726 727 5
726 766 3
727 728 3
727 767 2
728 729 5
728 768 5
729 730 3
729 769 2
730 731 5
730 770 4
731 732 2
731 771 5
732 733 2
732 772 4
733 734 5
733 773 4
734 735 4
734 774 5
735 736 1
735 775 2
736 737 3
736 776 4
737 738 4
737 777 1
738 739 1
738 778 3
739 740 1
739 779 4
740 741 1
740 780 2
741 742 4
741 781 5
742 743 4
742 782 2
743 744 4
743 783 3
744 745 1
744 784 3
745 746 3
745 785 3
746 747 5
746 786 4
747 748 2
747 787 3
748 749 3
748 788 3
749 750 5
749 789 3
750 751 4
750 790 1
751 752 1
751 791 4
752 753 2
752 792 2
753 754 1
753 793 3
754 755 5
754 794 5
755 756 2
755 795 1
756 757 5
756 796 2
757 758 2
757 797 4
758 759 1
758 798 3
759 760 1
759 799 1
760 800 4
761 762 1
761 801 1
762 763 4
762 802 3
763 764 1
763 803 2
764 765 2
764 804 3
765 766 1
765 805 1
766 767 1
766 806 1
767 768 1
767 807 2
768 769 4
768 808 5
769 770 1
769 809 3
770 771 4
770 810 2
771 772 2
771 811 4
772 773 3
772 812 4
773 774 5
773 813 3
774 775 5
774 814 5
775 776 4
775 815 1
776 777 4
776 816 3
777 778 2
777 817 3
778 779 3
778 818 1
779 780 5
779 819 1
780 781 5
780 820 4
781 782 3
781 821 5
782 783 4
782 822 4
783 784 1
783 823 1
784 785 1
784 824 1
785 786 1
785 825 5
786 787 2
786 826 4
787 788 3
787 827 5
788 789 3
788 828 2
789 790 1
789 829 1
790 791 5
790 830 4
791 792 3
791 831 1
792 793 5
792 832 3
793 794 5
793 833 4
794 795 3
794 834 3
795 796 2
795 835 5
796 797 4
796 836 4
797 798 4
797 837 5
798 799 3
798 838 5
799 800 2
799 839 4
800 840 1
801 802 1
801 841 1
802 803 1
802 842 4
803 804 1
803 843 4
804 805 2
804 844 1
805 806 4
805 845 4
806 807 1
806 846 4
807 808 2
807 847 1
808 809 3
808 848 4
809 810 5
809 849 1
810 811 2
810 850 3
811 812 1
811 851 5
812 813 5
812 852 3
813 814 2
813 853 5
814 815 1
814 854 3
815 816 2
815 855 4
816 817 2
816 856 4
817 818 4
817 857 5
818 819 2
818 858 2
819 820 1
819 859 1
820 821 2
820 860 4
821 822 2
821 861 4
822 823 2
822 862 4
823 824 3
823 863 3
824 825 2
824 864 5
825 826 3
825 865 4
826 827 1
826 866 1
827 828 5
827 867 2
828 829 5
828 868 5
829 830 1
829 869 2
830 831 3
830 870 1
831 832 3
831 871 1
832 833 3
832 872 3
833 834 2
833 873 3
834 835 5
834 874 5
835 836 1
835 875 3
836 837 3
836 876 4
837 838 4
837 877 4
838 839 4
838 878 5
839 840 4
839 879 3
840 880 4
841 842 4
841 881 3
842 843 4
842 882 1
843 844 5
843 883 3
844 845 1
844 884 4
845 846 4
845 885 3
846 847 2
846 886 1
847 848 4
847 887 3
848 849 5
848 888 2
849 850 1
849 889 3
850 851 4
850 890 2
851 852 5
851 891 1
852 853 3
852 892 2
853 854 1
853 893 5
854 855 2
854 894 1
855 856 2
855 895 3
856 857 4
856 896 5
857 858 2
857 897 2
858 859 3
858 898 5
859 860 5
859 899 5
860 861 2
860 900 1
861 862 1
861 901 4
862 863 5
862 902 1
863 864 5
863 903 4
864 865 5
864 904 4
865 866 5
865 905 5
866 867 1
866 906 3
867 868 1
867 907 5
868 869 1
868 908 2
869 870 4
869 909 3
870 871 5
870 910 1
871 872 4
871 911 4
872 873 2
872 912 2
873 874 2
873 913 5
874 875 1
874 914 2
875 876 5
875 915 2
876 877 1
876 916 1
877 878 1
877 917 5
878 879 3
878 918 2
879 880 4
879 919 5
880 920 1
881 882 4
881 921 3
882 883 2
882 922 5
883 884 2
883 923 5
884 885 3
884 924 3
885 886 1
885 925 5
886 887 2
886 926 2
887 888 1
887 927 2
888 889 3
888 928 1
889 890 1
889 929 4
890 891 1
890 930 1
891 892 3
891 931 1
892 893 5
892 932 2
893 894 3
893 933 2
894 895 4
894 934 5
895 896 3
895 935 4
896 897 2
896 936 1
897 898 1
897 937 1
898 899 3
898 938 5
899 900 5
899 939 3
900 901 2
900 940 5
901 902 4
901 941 2
902 903 2
902 942 2
903 904 4
903 943 2
904 905 2
904 944 5
905 906 1
905 945 3
906 907 2
906 946 3
907 908 4
907 947 5
908 909 2
908 948 5
909 910 4
909 949 4
910 911 4
910 950 3
911 912 4
911 951 4
912 913 4
912 952 1
913 914 2
913 953 1
914 915 5
914 954 2
915 916 5
915 955 1
916 917 4
916 956 3
917 918 1
917 957 3
918 919 5
918 958 3
919 920 5
919 959 1
920 960 5
921 922 5
921 961 1
922 923 1
922 962 5
923 924 4
923 963 3
924 925 3
924 964 1
925 926 1
925 965 5
926 927 5
926 966 2
927 928 3
927 967 3
928 929 5
928 968 5
929 930 4
929 969 5
930 931 3
930 970 4
931 932 4
931 971 2
932 933 1
932 972 2
933 934 4
933 973 1
934 935 1
934 974 3
935 936 2
935 975 2
936 937 2
936 976 1
937 938 5
937 977 1
938 939 3
938 978 4
939 940 1
939 979 4
940 941 1
940 980 3
941 942 4
941 981 2
942 943 3
942 982 3
943 944 3
943 983 3
944 945 3
944 984 5
945 946 5
945 985 5
946 947 4
946 986 4
947 948 5
947 987 3
948 949 2
948 988 3
949 950 5
949 989 2
950 951 1
950 990 1
951 952 2
951 991 1
952 953 3
952 992 2
953 954 5
953 993 2
954 955 4
954 994 3
955 956 1
955 995 5
956 957 4
956 996 4
957 958 2
957 997 1
958 959 4
958 998 3
959 960 5
959 999 2
960 1000 2
961 962 2
961 1001 5
962 963 5
962 1002 1
963 964 2
963 1003 5
964 965 1
964 1004 5
965 966 4
965 1005 2
966 967 5
966 1006 5
967 968 3
967 1007 4
968 969 5
968 1008 3
969 970 2
969 1009 3
970 971 3
970 1010 3
971 972 4
971 1011 5
972 973 5
972 1012 2
973 974 2
973 1013 3
974 975 5
974 1014 5
975 976 5
975 1015 5
976 977 5
976 1016 3
977 978 1
977 1017 4
978 979 3
978 1018 1
979 980 3
979 1019 4
980 981 3
980 1020 2
981 982 4
981 1021 4
982 983 1
982 1022 3
983 984 4
983 1023 2
984 985 1
984 1024 2
985 986 2
985 1025 3
986 987 5
986 1026 3
987 988 5
987 1027 4
988 989 2
988 1028 3
989 990 1
989 1029 1
990 991 3
990 1030 3
991 992 2
991 1031 2
992 993 4
992 1032 2
993 994 5
993 1033 3
994 995 2
994 1034 5
995 996 4
995 1035 1
996 997 2
996 1036 3
997 998 1
997 1037 2
998 999 2
998 1038 4
999 1000 5
999 1039 3
1000 1040 3
1001 1002 4
1001 1041 5
1002 1003 4
1002 1042 1
1003 1004 2
1003 1043 1
1004 1005 1
1004 1044 2
1005 1006 3
1005 1045 2
1006 1007 4
1006 1046 3
1007 1008 3
1007 1047 4
1008 1009 4
1008 1048 2
1009 1010 3
1009 1049 2
1010 1011 3
1010 1050 3
1011 1012 4
1011 1051 5
1012 1013 1
1012 1052 1
1013 1014 5
1013 1053 3
1014 1015 4
1014 1054 5
1015 1016 1
1015 1055 1
1016 1017 3
1016 1056 4
1017 1018 1
1017 1057 5
1018 1019 4
1018 1058 4
1019 1020 5
1019 1059 2
1020 1021 4
1020 1060 3
1021 1022 5
1021 1061 5
1022 1023 3
1022 1062 5
1023 1024 5
1023 1063 5
1024 1025 1
1024 1064 5
1025 1026 1
1025 1065 2
1026 1027 5
1026 1066 2
1027 1028 3
1027 1067 1
1028 1029 1
1028 1068 4
1029 1030 4
1029 1069 1
1030 1031 2
1030 1070 3
1031 1032 4
1031 1071 5
1032 1033 1
1032 1072 4
1033 1034 4
1033 1073 1
1034 1035 1
1034 1074 4
1035 1036 4
1035 1075 3
1036 1037 5
1036 1076 4
1037 1038 2
1037 1077 3
1038 1039 4
1038 1078 4
1039 1040 1
1039 1079 2
1040 1080 1
1041 1042 2
1041 1081 1
1042 1043 3
1042 1082 4
1043 1044 3
1043 1083 3
1044 1045 4
1044 1084 2
1045 1046 1
1045 1085 5
1046 1047 3
1046 1086 1
1047 1048 5
1047 1087 3
1048 1049 1
1048 1088 2
1049 1050 4
1049 1089 1
1050 1051 3
1050 1090 3
1051 1052 5
1051 1091 4
1052 1053 3
1052 1092 1
1053 1054 2
1053 1093 1
1054 1055 4
1054 1094 2
1055 1056 1
1055 1095 3
1056 1057 1
1056 1096 2
1057 1058 2
1057 1097 4
1058 1059 2
1058 1098 3
1059 1060 3
1059 1099 2
1060 1061 3
1060 1100 3
1061 1062 2
1061 1101 2
1062 1063 1
1062 1102 3
1063 1064 1
1063 1103 4
1064 1065 3
1064 1104 3
1065 1066 5
1065 1105 5
1066 1067 4
1066 1106 1
1067 1068 4
1067 1107 1
1068 1069 4
1068 1108 5
1069 1070 2
1069 1109 2
1070 1071 3
1070 1110 5
1071 1072 5
1071 1111 2
1072 1073 2
1072 1112 1
1073 1074 1
1073 1113 1
1074 1075 5
1074 1114 3
1075 1076 2
1075 1115 3
1076 1077 1
1076 1116 2
1077 1078 5
1077 1117 2
1078 1079 1
1078 1118 1
1079 1080 4
1079 1119 2
1080 1120 2
1081 1082 2
1081 1121 2
1082 1083 4
1082 1122 3
1083 1084 5
1083 1123 4
1084 1085 5
1084 1124 5
1085 1086 5
1085 1125 5
1086 1087 2
1086 1126 3
1087 1088 3
1087 1127 5
1088 1089 3
1088 1128 1
1089 1090 4
1089 1129 3
1090 1091 3
1090 1130 3
1091 1092 2
1091 1131 2
1092 1093 2
1092 1132 2
1093 1094 2
1093 1133 4
1094 1095 3
1094 1134 1
1095 1096 4
1095 1135 5
1096 1097 5
1096 1136 4
1097 1098 4
1097 1137 3
1098 1099 4
1098 1138 1
1099 1100 3
1099 1139 1
1100 1101 2
1100 1140 1
1101 1102 4
1101 1141 1
1102 1103 2
1102 1142 2
1103 1104 2
1103 1143 2
1104 1105 3
1104 1144 5
1105 1106 2
1105 1145 1
1106 1107 1
1106 1146 3
1107 1108 3
1107 1147 4
1108 1109 4
1108 1148 4
1109 1110 3
1109 1149 4
1110 1111 2
1110 1150 5
1111 1112 4
1111 1151 3
1112 1113 1
1112 1152 3
1113 1114 2
1113 1153 4
1114 1115 4
1114 1154 3
1115 1116 4
1115 1155 1
1116 1117 3
1116 1156 1
1117 1118 5
1117 1157 3
1118 1119 3
1118 1158 1
1119 1120 1
1119 1159 3
1120 1160 4
1121 1122 5
1121 1161 2
1122 1123 1
1122 1162 1
1123 1124 4
1123 1163 2
1124 1125 5
1124 1164 4
1125 1126 3
1125 1165 2
1126 1127 2
1126 1166 4
1127 1128 5
1127 1167 5
1128 1129 1
1128 1168 5
1129 1130 2
1129 1169 1
1130 1131 3
1130 1170 3
1131 1132 2
1131 1171 5
1132 1133 1
1132 1172 3
1133 1134 5
1133 1173 2
1134 1135 5
1134 1174 2
1135 1136 2
1135 1175 4
1136 1137 3
1136 1176 2
1137 1138 1
1137 1177 5
1138 1139 3
1138 1178 3
1139 1140 2
1139 1179 3
1140 1141 2
1140 1180 1
1141 1142 1
1141 1181 5
1142 1143 5
1142 1182 3
1143 1144 4
1143 1183 3
1144 1145 2
1144 1184 5
1145 1146 1
1145 1185 5
1146 1147 4
1146 1186 3
1147 1148 5
1147 1187 1
1148 1149 1
1148 1188 1
1149 1150 1
1149 1189 2
1150 1151 4
1150 1190 2
1151 1152 1
1151 1191 4
1152 1153 3
1152 1192 3
1153 1154 4
1153 1193 4
1154 1155 4
1154 1194 3
1155 1156 3
1155 1195 4
1156 1157 1
1156 1196 1
1157 1158 1
1157 1197 3
1158 1159 5
1158 1198 4
1159 1160 3
1159 1199 1
1160 1200 2
1161 1162 4
1161 1201 3
1162 1163 4
1162 1202 3
1163 1164 5
1163 1203 1
1164 1165 2
1164 1204 2
1165 1166 2
1165 1205 5
1166 1167 5
1166 1206 3
1167 1168 2
1167 1207 2
1168 1169 3
1168 1208 5
1169 1170 4
1169 1209 3
1170 1171 4
1170 1210 4
1171 1172 1
1171 1211 3
1172 1173 4
1172 1212 3
1173 1174 5
1173 1213 2
1174 1175 3
1174 1214 1
1175 1176 3
1175 1215 1
1176 1177 3
1176 1216 2
1177 1178 3
1177 1217 1
1178 1179 1
1178 1218 3
1179 1180 4
1179 1219 2
1180 1181 4
1180 1220 1
1181 1182 3
1181 1221 2
1182 1183 4
1182 1222 4
1183 1184 1
1183 1223 3
1184 1185 4
1184 1224 5
1185 1186 1
1185 1225 1
1186 1187 2
1186 1226 4
1187 1188 3
1187 1227 1
1188 1189 4
1188 1228 1
1189 1190 4
1189 1229 5
1190 1191 4
1190 1230 3
1191 1192 2
1191 1231 3
1192 1193 1
1192 1232 5
1193 1194 4
1193 1233 5
1194 1195 1
1194 1234 1
1195 1196 5
1195 1235 2
1196 1197 5
1196 1236 1
1197 1198 5
1197 1237 3
1198 1199 2
1198 1238 5
1199 1200 5
1199 1239 3
1200 1240 1
1201 1202 4
1201 1241 4
1202 1203 1
1202 1242 3
1203 1204 2
1203 1243 1
1204 1205 1
1204 1244 1
1205 1206 3
1205 1245 2
1206 1207 1
1206 1246 4
1207 1208 3
1207 1247 5
1208 1209 1
1208 1248 2
1209 1210 4
1209 1249 1
1210 1211 1
1210 1250 3
1211 1212 2
1211 1251 2
1212 1213 4
1212 1252 3
1213 1214 5
1213 1253 1
1214 1215 3
1214 1254 3
1215 1216 3
1215 1255 3
1216 1217 2
1216 1256 4
1217 1218 2
1217 1257 4
1218 1219 5
1218 1258 2
1219 1220 4
1219 1259 3
1220 1221 5
1220 1260 4
1221 1222 1
1221 1261 5
1222 1223 2
1222 1262 1
1223 1224 1
1223 1263 1
1224 1225 5
1224 1264 2
1225 1226 4
1225 1265 2
1226 1227 5
1226 1266 2
1227 1228 1
1227 1267 4
1228 1229 3
1228 1268 3
1229 1230 3
1229 1269 3
1230 1231 1
1230 1270 5
1231 1232 5
1231 1271 1
1232 1233 4
1232 1272 5
1233 1234 5
1233 1273 1
1234 1235 3
1234 1274 3
1235 1236 5
1235 1275 3
1236 1237 5
1236 1276 2
1237 1238 3
1237 1277 2
1238 1239 1
1238 1278 1
1239 1240 1
1239 1279 2
1240 1280 1
1241 1242 4
1241 1281 5
1242 1243 1
1242 1282 4
1243 1244 5
1243 1283 4
1244 1245 2
1244 1284 4
1245 1246 3
1245 1285 3
1246 1247 2
1246 1286 1
1247 1248 5
1247 1287 5
1248 1249 5
1248 1288 3
1249 1250 1
1249 1289 1
1250 1251 5
1250 1290 1
1251 1252 1
1251 1291 2
1252 1253 4
1252 1292 3
1253 1254 4
1253 1293 4
1254 1255 2
1254 1294 4
1255 1256 5
1255 1295 3
1256 1257 1
1256 1296 5
1257 1258 1
1257 1297 5
1258 1259 2
1258 1298 1
1259 1260 2
1259 1299 4
1260 1261 1
1260 1300 5
1261 1262 4
1261 1301 5
1262 1263 2
1262 1302 5
1263 1264 1
1263 1303 5
1264 1265 1
1264 1304 2
1265 1266 1
1265 1305 4
1266 1267 2
1266 1306 4
1267 1268 2
1267 1307 2
1268 1269 4
1268 1308 2
1269 1270 1
1269 1309 5
1270 1271 3
1270 1310 4
1271 1272 5
1271 1311 2
1272 1273 4
1272 1312 5
1273 1274 2
1273 1313 5
1274 1275 4
1274 1314 4
1275 1276 4
1275 1315 4
1276 1277 4
1276 1316 5
1277 1278 1
1277 1317 1
1278 1279 2
1278 1318 3
1279 1280 4
1279 1319 1
1280 1320 1
1281 1282 4
1281 1321 4
1282 1283 4
1282 1322 3
1283 1284 2
1283 1323 4
1284 1285 1
1284 1324 3
1285 1286 3
1285 1325 3
1286 1287 1
1286 1326 1
1287 1288 4
1287 1327 2
1288 1289 3
1288 1328 4
1289 1290 5
1289 1329 1
1290 1291 4
1290 1330 1
1291 1292 2
1291 1331 1
1292 1293 3
1292 1332 4
1293 1294 3
1293 1333 4
1294 1295 4
1294 1334 3
1295 1296 4
1295 1335 3
1296 1297 2
1296 1336 2
1297 1298 3
1297 1337 4
1298 1299 1
1298 1338 3
1299 1300 2
1299 1339 3
1300 1301 3
1300 1340 3
1301 1302 4
1301 1341 1
1302 1303 5
1302 1342 2
1303 1304 1
1303 1343 5
1304 1305 4
1304 1344 5
1305 1306 4
1305 1345 5
1306 1307 1
1306 1346 4
1307 1308 4
1307 1347 4
1308 1309 4
1308 1348 4
1309 1310 5
1309 1349 2
1310 1311 3
1310 1350 3
1311 1312 3
1311 1351 4
1312 1313 1
1312 1352 4
1313 1314 2
1313 1353 3
1314 1315 3
1314 1354 5
1315 1316 3
1315 1355 5
1316 1317 5
1316 1356 5
1317 1318 4
1317 1357 3
1318 1319 5
1318 1358 4
1319 1320 4
1319 1359 1
1320 1360 5
1321 1322 5
1321 1361 1
1322 1323 2
1322 1362 2
1323 1324 5
1323 1363 4
1324 1325 1
1324 1364 1
1325 1326 2
1325 1365 5
1326 1327 4
1326 1366 3
1327 1328 5
1327 1367 1
1328 1329 3
1328 1368 3
1329 1330 3
1329 1369 3
1330 1331 3
1330 1370 4
1331 1332 3
1331 1371 2
1332 1333 1
1332 1372 5
1333 1334 4
1333 1373 5
1334 1335 3
1334 1374 5
1335 1336 2
1335 1375 3
1336 1337 4
1336 1376 2
1337 1338 4
1337 1377 3
1338 1339 5
1338 1378 5
1339 1340 5
1339 1379 3
1340 1341 4
1340 1380 4
1341 1342 1
1341 1381 1
1342 1343 3
1342 1382 1
1343 1344 3
1343 1383 5
1344 1345 5
1344 1384 5
1345 1346 5
1345 1385 1
1346 1347 3
1346 1386 5
1347 1348 2
1347 1387 4
1348 1349 1
1348 1388 4
1349 1350 3
1349 1389 4
1350 1351 5
1350 1390 2
1351 1352 3
1351 1391 5
1352 1353 2
1352 1392 3
1353 1354 5
1353 1393 1
1354 1355 3
1354 1394 5
1355 1356 4
1355 1395 1
1356 1357 1
1356 1396 5
1357 1358 4
1357 1397 5
1358 1359 4
1358 1398 2
1359 1360 4
1359 1399 3
1360 1400 4
1361 1362 5
1361 1401 5
1362 1363 3
1362 1402 5
1363 1364 4
1363 1403 2
1364 1365 1
1364 1404 3
1365 1366 4
1365 1405 1
1366 1367 4
1366 1406 5
1367 1368 3
1367 1407 5
1368 1369 4
1368 1408 3
1369 1370 3
1369 1409 5
1370 1371 1
1370 1410 4
1371 1372 4
1371 1411 3
1372 1373 2
1372 1412 3
1373 1374 4
1373 1413 1
1374 1375 4
1374 1414 1
1375 1376 2
1375 1415 3
1376 1377 5
1376 1416 1
1377 1378 4
1377 1417 3
1378 1379 1
1378 1418 4
1379 1380 5
1379 1419 1
1380 1381 2
1380 1420 3
1381 1382 1
1381 1421 5
1382 1383 5
1382 1422 3
1383 1384 4
1383 1423 2
1384 1385 3
1384 1424 5
1385 1386 1
1385 1425 4
1386 1387 4
1386 1426 1
1387 1388 2
1387 1427 5
1388 1389 3
1388 1428 1
1389 1390 1
1389 1429 4
1390 1391 5
1390 1430 4
1391 1392 1
1391 1431 5
1392 1393 2
1392 1432 5
1393 1394 2
1393 1433 3
1394 1395 1
1394 1434 5
1395 1396 4
1395 1435 4
1396 1397 4
1396 1436 4
1397 1398 3
1397 1437 2
1398 1399 5
1398 1438 2
1399 1400 3
1399 1439 1
1400 1440 4
1401 1402 4
1401 1441 5
1402 1403 2
1402 1442 3
1403 1404 1
1403 1443 5
1404 1405 1
1404 1444 5
1405 1406 1
1405 1445 5
1406 1407 2
1406 1446 5
1407 1408 3
1407 1447 3
1408 1409 2
1408 1448 2
1409 1410 1
1409 1449 5
1410 1411 5
1410 1450 2
1411 1412 1
1411 1451 4
1412 1413 5
1412 1452 3
1413 1414 3
1413 1453 4
1414 1415 3
1414 1454 2
1415 1416 5
1415 1455 4
1416 1417 3
1416 1456 1
1417 1418 2
1417 1457 1
1418 1419 5
1418 1458 4
1419 1420 1
1419 1459 2
1420 1421 2
1420 1460 5
1421 1422 1
1421 1461 1
1422 1423 4
1422 1462 2
1423 1424 2
1423 1463 2
1424 1425 2
1424 1464 2
1425 1426 3
1425 1465 3
1426 1427 1
1426 1466 2
1427 1428 4
1427 1467 5
1428 1429 3
1428 1468 2
1429 1430 3
1429 1469 3
1430 1431 5
1430 1470 5
1431 1432 3
1431 1471 3
1432 1433 4
1432 1472 2
1433 1434 4
1433 1473 3
1434 1435 2
1434 1474 5
1435 1436 3
1435 1475 3
1436 1437 4
1436 1476 1
1437 1438 2
1437 1477 1
1438 1439 3
1438 1478 4
1439 1440 4
1439 1479 4
1440 1480 2
1441 1442 1
1441 1481 2
1442 1443 1
1442 1482 5
1443 1444 1
1443 1483 1
1444 1445 1
1444 1484 3
1445 1446 5
1445 1485 4
1446 1447 5
1446 1486 2
1447 1448 5
1447 1487 4
1448 1449 3
1448 1488 1
1449 1450 1
1449 1489 5
1450 1451 5
1450 1490 5
1451 1452 4
1451 1491 3
1452 1453 3
1452 1492 4
1453 1454 5
1453 1493 3
1454 1455 3
1454 1494 4
1455 1456 1
1455 1495 2
1456 1457 2
1456 1496 2
1457 1458 3
1457 1497 3
1458 1459 1
1458 1498 2
1459 1460 5
1459 1499 1
1460 1461 4
1460 1500 3
1461 1462 1
1461 1501 1
1462 1463 1
1462 1502 4
1463 1464 1
1463 1503 3
1464 1465 3
1464 1504 3
1465 1466 5
1465 1505 1
1466 1467 2
1466 1506 4
1467 1468 3
1467 1507 3
1468 1469 1
1468 1508 1
1469 1470 3
1469 1509 1
1470 1471 4
1470 1510 2
1471 1472 4
1471 1511 5
1472 1473 3
1472 1512 3
1473 1474 2
1473 1513 2
1474 1475 4
1474 1514 2
1475 1476 1
1475 1515 2
1476 1477 1
1476 1516 1
1477 1478 4
1477 1517 5
1478 1479 3
1478 1518 5
1479 1480 5
1479 1519 5
1480 1520 1
1481 1482 2
1481 1521 3
1482 1483 1
1482 1522 1
1483 1484 5
1483 1523 4
1484 1485 5
1484 1524 2
1485 1486 1
1485 1525 2
1486 1487 1
1486 1526 1
1487 1488 1
1487 1527 1
1488 1489 4
1488 1528 4
1489 1490 3
1489 1529 3
1490 1491 5
1490 1530 2
1491 1492 5
1491 1531 5
1492 1493 1
1492 1532 5
1493 1494 1
1493 1533 1
1494 1495 4
1494 1534 1
1495 1496 2
1495 1535 2
1496 1497 5
1496 1536 4
1497 1498 4
1497 1537 1
1498 1499 3
1498 1538 5
1499 1500 3
1499 1539 5
1500 1501 1
1500 1540 3
1501 1502 3
1501 1541 2
1502 1503 1
1502 1542 3
1503 1504 4
1503 1543 1
1504 1505 5
1504 1544 1
1505 1506 1
1505 1545 2
1506 1507 5
1506 1546 1
1507 1508 1
1507 1547 2
1508 1509 1
1508 1548 4
1509 1510 4
1509 1549 5
1510 1511 2
1510 1550 3
1511 1512 1
1511 1551 5
1512 1513 1
1512 1552 5
1513 1514 1
1513 1553 2
1514 1515 2
1514 1554 2
1515 1516 5
1515 1555 4
1516 1517 2
1516 1556 1
1517 1518 2
1517 1557 2
1518 1519 5
1518 1558 5
1519 1520 1
1519 1559 3
1520 1560 1
1521 1522 2
1521 1561 2
1522 1523 1
1522 1562 4
1523 1524 2
1523 1563 4
1524 1525 4
1524 1564 2
1525 1526 3
1525 1565 5
1526 1527 4
1526 1566 3
1527 1528 3
1527 1567 4
1528 1529 1
1528 1568 4
1529 1530 5
1529 1569 5
1530 1531 5
1530 1570 2
1531 1532 2
1531 1571 2
1532 1533 4
1532 1572 1
1533 1534 3
1533 1573 3
1534 1535 5
1534 1574 4
1535 1536 3
1535 1575 2
1536 1537 4
1536 1576 3
1537 1538 2
1537 1577 2
1538 1539 4
1538 1578 5
1539 1540 1
1539 1579 3
1540 1541 1
1540 1580 3
1541 1542 1
1541 1581 2
1542 1543 1
1542 1582 3
1543 1544 5
1543 1583 2
1544 1545 5
1544 1584 3
1545 1546 3
1545 1585 1
1546 1547 3
1546 1586 1
1547 1548 2
1547 1587 2
1548 1549 1
1548 1588 5
1549 1550 3
1549 1589 2
1550 1551 2
1550 1590 1
1551 1552 1
1551 1591 2
1552 1553 4
1552 1592 3
1553 1554 2
1553 1593 3
1554 1555 4
1554 1594 4
1555 1556 5
1555 1595 1
1556 1557 3
1556 1596 4
1557 1558 3
1557 1597 5
1558 1559 3
1558 1598 4
1559 1560 4
1559 1599 5
1560 1600 2
1561 1562 2
1562 1563 3
1563 1564 3
1564 1565 4
1565 1566 3
1566 1567 1
1567 1568 4
1568 1569 1
1569 1570 3
1570 1571 5
1571 1572 1
1572 1573 1
1573 1574 3
1574 1575 5
1575 1576 1
1576 1577 4
1577 1578 5
1578 1579 2
1579 1580 1
1580 1581 2
1581 1582 1
1582 1583 1
1583 1584 4
1584 1585 5
1585 1586 4
1586 1587 2
1587 1588 2
1588 1589 2
1589 1590 3
1590 1591 2
1591 1592 5
1592 1593 3
1593 1594 2
1594 1595 5
1595 1596 3
1596 1597 3
1597 1598 5
1598 1599 2
1599 1600 3
1 1561 4
2 1562 4
3 1563 3
4 1564 5
5 1565 4
6 1566 2
7 1567 4
8 1568 5
9 1569 4
10 1570 2
11 1571 4
12 1572 2
13 1573 5
14 1574 2
15 1575 4
16 1576 5
17 1577 3
18 1578 1
19 1579 4
20 1580 4
21 1581 2
22 1582 1
23 1583 1
24 1584 2
25 1585 2
26 1586 4
27 1587 4
28 1588 2
29 1589 5
30 1590 5
31 1591 3
32 1592 3
33 1593 3
34 1594 1
35 1595 2
36 1596 5
37 1597 2
38 1598 1
39 1599 1
40 1600 4
1 40 4
41 80 4
81 120 1
121 160 4
161 200 2
201 240 4
241 280 4
281 320 2
321 360 1
361 400 3
401 440 4
441 480 1
481 520 3
521 560 2
561 600 4
601 640 3
641 680 2
681 720 5
721 760 4
761 800 2
801 840 1
841 880 4
881 920 3
921 960 5
961 1000 3
1001 1040 1
1041 1080 1
1081 1120 1
1121 1160 2
1161 1200 3
1201 1240 3
1241 1280 4
1281 1320 5
1321 1360 4
1361 1400 4
1401 1440 5
1441 1480 3
1481 1520 5
1521 1560 2
1561 1600 3
